\ This file has been generated by DOcplex
\ ENCODING=ISO-8859-1
\Problem name: Orandom2142_6.lp

Minimize
 obj: - 23.999999817065 x0 - 11.999999908532 x1 - 5.999999954266 x2
      - 35.999999817065 x3 - 17.999999908532 x4 - 8.999999954266 x5 + [
      47.999999895466 x0^2 + 47.999999895466 x0*x1 + 23.999999947733 x0*x2
      + 31.999999790931 x0*x3 + 15.999999895466 x0*x4 + 7.999999947733 x0*x5
      + 11.999999973866 x1^2 + 11.999999973866 x1*x2 + 15.999999895466 x1*x3
      + 7.999999947733 x1*x4 + 3.999999973866 x1*x5 + 2.999999993467 x2^2
      + 7.999999947733 x2*x3 + 3.999999973866 x2*x4 + 1.999999986933 x2*x5
      + 15.999999895466 x3^2 + 15.999999895466 x3*x4 + 7.999999947733 x3*x5
      + 3.999999973866 x4^2 + 3.999999973866 x4*x5 + 0.999999993467 x5^2 ]/2 +
      24.499999839932
Subject To

Bounds
 0 <= x0 <= 1
 0 <= x1 <= 1
 0 <= x2 <= 1
 0 <= x3 <= 1
 0 <= x4 <= 1
 0 <= x5 <= 1

Binaries
 x0 x1 x2 x3 x4 x5
End
